c File: data_files/evolved_graphs/g0057.col
c
c Auto generated graph
c
p edge 100 898
e 1 5
e 1 10
e 1 11
e 1 41
e 1 54
e 1 56
e 1 65
e 1 69
e 1 77
e 1 79
e 1 80
e 1 85
e 1 89
e 1 92
e 1 93
e 1 99
e 1 100
e 2 8
e 2 10
e 2 14
e 2 33
e 2 45
e 2 59
e 2 70
e 2 76
e 2 82
e 2 87
e 2 88
e 2 92
e 2 95
e 2 97
e 3 9
e 3 22
e 3 32
e 3 76
e 3 79
e 3 85
e 3 88
e 3 92
e 3 98
e 4 18
e 4 28
e 4 34
e 4 37
e 4 51
e 4 64
e 4 65
e 4 69
e 4 73
e 4 75
e 4 77
e 4 85
e 4 89
e 4 92
e 5 8
e 5 41
e 5 42
e 5 44
e 5 46
e 5 47
e 5 55
e 5 64
e 5 71
e 5 75
e 5 79
e 5 80
e 5 85
e 5 92
e 5 100
e 6 18
e 6 39
e 6 45
e 6 65
e 6 76
e 6 80
e 6 83
e 6 90
e 6 92
e 7 15
e 7 16
e 7 19
e 7 39
e 7 48
e 7 53
e 7 54
e 7 60
e 7 62
e 7 63
e 7 73
e 7 76
e 7 86
e 7 98
e 7 99
e 8 25
e 8 28
e 8 30
e 8 32
e 8 36
e 8 49
e 8 58
e 8 62
e 8 64
e 8 67
e 8 71
e 8 73
e 8 75
e 8 80
e 8 84
e 8 95
e 8 96
e 9 29
e 9 33
e 9 36
e 9 42
e 9 56
e 9 61
e 9 66
e 9 72
e 9 79
e 9 82
e 9 83
e 9 85
e 9 92
e 9 93
e 9 94
e 9 99
e 10 25
e 10 30
e 10 42
e 10 44
e 10 51
e 10 54
e 10 56
e 10 59
e 10 71
e 10 72
e 10 75
e 10 81
e 10 95
e 10 96
e 11 13
e 11 21
e 11 22
e 11 29
e 11 50
e 11 59
e 11 64
e 11 77
e 11 78
e 11 79
e 11 81
e 11 83
e 11 84
e 11 85
e 11 86
e 11 89
e 11 91
e 11 96
e 11 100
e 12 20
e 12 27
e 12 34
e 12 39
e 12 41
e 12 42
e 12 43
e 12 46
e 12 59
e 12 62
e 12 65
e 12 72
e 12 75
e 12 77
e 12 78
e 12 87
e 12 89
e 12 90
e 12 95
e 13 24
e 13 40
e 13 43
e 13 44
e 13 56
e 13 62
e 13 66
e 13 68
e 13 69
e 13 71
e 13 76
e 13 79
e 13 88
e 13 90
e 13 93
e 13 100
e 14 16
e 14 17
e 14 29
e 14 46
e 14 47
e 14 58
e 14 65
e 14 66
e 14 76
e 14 77
e 14 78
e 14 79
e 14 80
e 14 91
e 14 95
e 14 96
e 14 98
e 15 22
e 15 23
e 15 32
e 15 48
e 15 52
e 15 55
e 15 68
e 15 71
e 15 95
e 15 99
e 16 19
e 16 20
e 16 23
e 16 37
e 16 42
e 16 45
e 16 58
e 16 69
e 16 85
e 16 86
e 16 87
e 16 96
e 16 98
e 16 100
e 17 25
e 17 36
e 17 40
e 17 44
e 17 48
e 17 61
e 17 68
e 17 73
e 17 78
e 17 83
e 17 84
e 17 86
e 18 30
e 18 33
e 18 41
e 18 59
e 18 65
e 18 70
e 18 75
e 18 81
e 18 93
e 18 96
e 18 97
e 18 100
e 19 27
e 19 52
e 19 64
e 19 71
e 19 77
e 19 78
e 19 81
e 19 86
e 19 87
e 19 89
e 20 22
e 20 28
e 20 47
e 20 51
e 20 57
e 20 58
e 20 64
e 20 74
e 20 75
e 20 81
e 20 85
e 20 86
e 20 92
e 20 99
e 21 27
e 21 35
e 21 42
e 21 47
e 21 52
e 21 60
e 21 67
e 21 71
e 21 74
e 21 75
e 21 78
e 21 80
e 21 85
e 21 89
e 21 98
e 21 100
e 22 29
e 22 47
e 22 70
e 22 73
e 22 78
e 22 79
e 22 84
e 22 86
e 22 89
e 22 90
e 22 95
e 23 32
e 23 34
e 23 39
e 23 45
e 23 61
e 23 70
e 23 74
e 23 76
e 23 77
e 23 81
e 23 84
e 23 91
e 23 95
e 24 38
e 24 39
e 24 44
e 24 55
e 24 62
e 24 71
e 24 73
e 24 74
e 24 84
e 24 88
e 24 94
e 24 98
e 24 99
e 24 100
e 25 36
e 25 42
e 25 44
e 25 69
e 25 70
e 25 71
e 25 76
e 25 79
e 25 81
e 25 83
e 25 84
e 25 87
e 25 89
e 25 95
e 25 96
e 25 98
e 25 100
e 26 27
e 26 29
e 26 49
e 26 69
e 26 73
e 26 74
e 26 75
e 26 78
e 26 91
e 26 94
e 26 97
e 26 99
e 27 50
e 27 51
e 27 52
e 27 70
e 27 74
e 27 77
e 27 80
e 27 84
e 27 85
e 27 92
e 27 96
e 27 97
e 27 99
e 28 49
e 28 59
e 28 65
e 28 67
e 28 71
e 28 72
e 28 74
e 28 79
e 28 82
e 28 83
e 28 85
e 28 93
e 28 94
e 29 41
e 29 46
e 29 49
e 29 64
e 29 68
e 29 72
e 29 79
e 29 84
e 29 85
e 29 86
e 29 90
e 29 98
e 29 99
e 30 31
e 30 38
e 30 63
e 30 66
e 30 70
e 30 72
e 30 75
e 30 79
e 30 80
e 30 81
e 30 82
e 30 83
e 30 86
e 30 87
e 30 88
e 30 90
e 30 92
e 30 95
e 30 97
e 30 98
e 31 49
e 31 56
e 31 69
e 31 70
e 31 71
e 31 75
e 31 78
e 31 82
e 31 86
e 31 88
e 31 92
e 31 93
e 31 94
e 31 98
e 32 36
e 32 37
e 32 38
e 32 39
e 32 62
e 32 68
e 32 75
e 32 78
e 32 80
e 32 81
e 32 83
e 32 87
e 32 88
e 32 89
e 32 94
e 32 95
e 32 96
e 32 98
e 33 37
e 33 57
e 33 65
e 33 68
e 33 70
e 33 78
e 33 81
e 33 83
e 33 98
e 33 99
e 33 100
e 34 35
e 34 51
e 34 52
e 34 53
e 34 58
e 34 61
e 34 69
e 34 72
e 34 75
e 34 76
e 34 78
e 34 84
e 34 85
e 34 87
e 34 89
e 34 96
e 34 97
e 34 98
e 34 100
e 35 38
e 35 44
e 35 55
e 35 71
e 35 76
e 35 78
e 35 86
e 35 91
e 35 92
e 35 94
e 35 95
e 35 96
e 35 97
e 35 98
e 35 99
e 36 49
e 36 55
e 36 59
e 36 62
e 36 74
e 36 76
e 36 79
e 36 83
e 36 89
e 37 46
e 37 47
e 37 50
e 37 72
e 37 73
e 37 74
e 37 78
e 37 83
e 37 84
e 37 88
e 37 89
e 37 92
e 37 94
e 37 95
e 37 96
e 37 97
e 37 99
e 37 100
e 38 41
e 38 43
e 38 60
e 38 64
e 38 78
e 38 79
e 38 83
e 38 84
e 38 86
e 38 88
e 38 99
e 38 100
e 39 50
e 39 58
e 39 59
e 39 63
e 39 69
e 39 76
e 39 80
e 39 82
e 39 85
e 39 87
e 39 91
e 39 95
e 39 96
e 40 44
e 40 59
e 40 65
e 40 70
e 40 79
e 40 80
e 40 81
e 40 82
e 40 84
e 40 87
e 40 88
e 40 90
e 40 94
e 40 97
e 40 100
e 41 47
e 41 62
e 41 68
e 41 70
e 41 71
e 41 74
e 41 77
e 41 79
e 41 80
e 41 89
e 41 91
e 41 93
e 41 96
e 41 98
e 41 100
e 42 49
e 42 59
e 42 64
e 42 66
e 42 68
e 42 69
e 42 81
e 42 83
e 42 85
e 42 87
e 42 89
e 42 92
e 42 97
e 43 53
e 43 70
e 43 73
e 43 76
e 43 77
e 43 85
e 43 87
e 43 88
e 43 91
e 43 92
e 43 93
e 44 57
e 44 59
e 44 61
e 44 70
e 44 71
e 44 72
e 44 73
e 44 77
e 44 80
e 44 91
e 44 95
e 44 99
e 44 100
e 45 68
e 45 73
e 45 74
e 45 75
e 45 80
e 45 90
e 45 96
e 46 51
e 46 60
e 46 72
e 46 77
e 46 78
e 46 79
e 46 82
e 46 93
e 46 94
e 46 95
e 46 96
e 46 100
e 47 61
e 47 68
e 47 73
e 47 75
e 47 76
e 47 79
e 47 83
e 47 89
e 48 51
e 48 52
e 48 70
e 48 77
e 48 79
e 48 80
e 48 86
e 48 87
e 48 94
e 48 95
e 48 98
e 49 69
e 49 70
e 49 72
e 49 81
e 49 87
e 49 89
e 49 92
e 49 94
e 49 97
e 49 98
e 50 69
e 50 74
e 50 82
e 50 87
e 50 88
e 50 91
e 50 93
e 50 96
e 50 97
e 51 74
e 51 79
e 51 85
e 51 91
e 51 94
e 51 96
e 52 54
e 52 60
e 52 61
e 52 74
e 52 77
e 52 78
e 52 86
e 52 88
e 52 89
e 53 54
e 53 70
e 53 71
e 53 73
e 53 75
e 53 80
e 53 83
e 53 85
e 53 87
e 53 88
e 53 90
e 53 91
e 53 96
e 53 98
e 53 100
e 54 71
e 54 72
e 54 74
e 54 80
e 54 81
e 54 88
e 54 90
e 54 93
e 54 94
e 54 96
e 55 66
e 55 71
e 55 75
e 55 77
e 55 79
e 55 82
e 55 93
e 55 96
e 55 99
e 56 63
e 56 64
e 56 67
e 56 69
e 56 72
e 56 76
e 56 77
e 56 80
e 56 83
e 56 84
e 56 91
e 56 93
e 56 97
e 57 59
e 57 61
e 57 69
e 57 70
e 57 74
e 57 82
e 57 84
e 57 88
e 57 99
e 58 59
e 58 61
e 58 67
e 58 75
e 58 79
e 58 88
e 58 90
e 58 91
e 58 93
e 58 98
e 59 63
e 59 65
e 59 69
e 59 71
e 59 73
e 59 79
e 59 81
e 59 82
e 59 84
e 59 87
e 59 95
e 59 96
e 60 63
e 60 67
e 60 69
e 60 72
e 60 73
e 60 74
e 60 76
e 60 77
e 60 79
e 60 84
e 60 95
e 60 97
e 60 100
e 61 65
e 61 66
e 61 71
e 61 74
e 61 79
e 61 92
e 61 93
e 61 94
e 61 99
e 62 65
e 62 66
e 62 67
e 62 74
e 62 79
e 62 87
e 62 91
e 62 95
e 62 98
e 62 100
e 63 72
e 63 75
e 63 76
e 63 79
e 63 82
e 63 87
e 63 94
e 63 95
e 63 96
e 64 70
e 64 72
e 64 73
e 64 76
e 64 77
e 64 80
e 64 85
e 64 91
e 64 95
e 65 70
e 65 71
e 65 75
e 65 80
e 65 83
e 65 89
e 65 97
e 66 69
e 66 71
e 66 76
e 66 80
e 66 84
e 66 87
e 66 89
e 66 92
e 66 94
e 67 70
e 67 72
e 67 75
e 67 77
e 67 78
e 67 88
e 67 89
e 67 91
e 67 95
e 68 81
e 68 82
e 68 84
e 68 86
e 68 88
e 68 96
e 69 83
e 69 88
e 69 91
e 70 72
e 70 87
e 71 73
e 71 93
e 72 93
e 73 76
e 73 79
e 73 81
e 73 84
e 73 93
e 74 76
e 75 81
e 75 99
e 77 78
e 77 92
e 77 96
e 78 83
e 78 89
e 78 96
e 79 84
e 81 82
e 81 83
e 81 92
e 81 99
e 82 84
e 82 86
e 82 98
e 82 99
e 83 89
e 84 92
e 85 94
e 86 89
e 86 96
e 87 88
e 87 100
e 88 91
e 90 99
e 91 96
e 91 97
e 91 99
e 92 99
e 96 100
e 97 99
